benchmark_str_length/p2_10_8-0.dzn
Alphabet = {A,C,G,T};
ns = 10;
nc = 5;
sl = 10;
neighbours = [| I(A),I(G),I(G),Null,Null | I(A),I(C),I(A),Null,Null | I(A),I(C),I(C),I(G),Null | I(A),I(C),I(C),I(T),I(G) | I(T),I(G),I(T),Null,Null | I(C),I(T),I(A),I(T),I(T) | I(C),I(G),I(C),Null,Null | I(T),I(G),I(T),I(T),I(G) | I(C),I(A),I(A),Null,Null | I(A),I(G),Null,Null,Null |];
