benchmark_str_length/p2_10_8-0.txt
{
	"num_strings": 10,
	"alphabet": "ACGT",
	"strings": [
		"AGG",
		"ACA",
		"ACCG",
		"ACCTG",
		"TGT",
		"CTATT",
		"CGC",
		"TGTTG",
		"CAA",
		"AG"
	],
	"str_length":[3,3,4,5,3,5,3,5,3,2]
}